
 102   30
  10   10   10   10   10   10   10   10   10   10   10   10   10   10   10   10   10   10   10   10   10   10   10   10   10   10   10   10   10   10

   0   0   0   0   0   0   0   0   0   0   0   0   0   0   0   0   0   0   0   0   0   0   0   0   0   0   0   0   0   0   0  30 2 3 4 5 6 7 8 9 10 11 12 13 14 15 16 17 18 20 21 22 23 24 26 27 30 36 37 38 40 46 
   7   1   2   0   0   0   0   0   0   0   0   0   0   0   0   0   0   0   0   3   0   0   0   0   0   0   0   0   0   0   2  11 101 99 63 62 56 54 50 48 33 25 19 
   5   0   0   0   0   0   0   0   0   0   1   0   2   0   0   0   2   0   0   0   0   0   0   1   0   0   0   4   0   0   0  17 100 71 68 66 63 62 61 57 56 55 54 50 49 48 47 32 29 
  10   0   0   0   0   0   0   0   0   0   0   0   0   1   0   0   0   0   0   0   0   0   0   0   0   0   0   0   0   0   0  15 100 69 66 61 60 59 56 51 50 47 45 44 41 35 31 
   8   0   0   0   0   0   0   0   0   0   8   0   0   6   1   0   6   0   0   0   0   3   0   0   0   0   0   0   0   0   0  18 101 99 76 75 74 73 68 66 61 60 58 57 55 54 52 44 41 28 
  10   0   0   0   0   0   0   0   0   0   4   0   0   6   0   1   0   0   0   0   0   0   0   0   0   0   0   0   0   0   0  17 95 76 71 69 68 67 66 61 60 55 53 50 47 44 42 41 29 
   9   0   0   1   0   0   0   0   0   0   0   0   0   0   5   0   0   0   0   0   0   0   1   0   0   0   0   0   0   0   0  16 74 73 69 66 63 60 59 58 57 56 55 54 52 50 44 31 
   8   0   0   0   0   0   0   0   0   0   0   0   0   0   0   0   0   0   0   4   1   0   0   0   0   0   0   0   0   0   0  13 100 75 63 62 61 59 52 51 50 48 44 43 33 
   7   0   0   9   0   0   0   0   2   0   0   0   0   7   0   0   0   3   0   0   0   0   0   0   0   0   0   0   3   0   0  15 100 95 75 74 72 68 65 62 60 59 58 55 53 52 34 
   4   0   0   0   0   0   0   0   0   0   0   0   0   0   0   0   6   0   0   0   0   0   0   0   0   0   0   6   3   0   0  23 101 99 98 96 95 94 85 76 73 70 68 66 65 63 62 61 60 58 57 55 53 48 47 
   3   0   0   0   0   1   0   0   6   0   0   1   0   0   0   0   0   8   0   5   0   4   0   0   0   1   0   0   0   0   0  18 101 100 99 98 97 95 94 74 73 68 66 65 64 63 58 50 48 39 
   5   0   0   0   0   0   0   0   8   0   0   0   0   0   0   0   0   0   0   0   0   0   0   0   0   0   0   0   0   0   0  16 99 94 89 80 76 75 73 71 66 65 63 59 58 56 54 41 
   9   0   0   0   2   0   0   0   0   0   0   0   0   0   0   5   0   0   0   0   0   0   0   0   0   0   0   5   0   0   0  12 100 96 75 74 66 61 58 51 50 49 44 41 
   1   0   7   0   0   0   0   0   0   0   0   0   0   0   0   0   0   0   0   4   0   0  10   0   0   6   4   0   0   1   0  12 101 76 74 72 65 64 63 62 58 54 52 34 
   2   0   0   0   0   0   2   0   0   0   0   0   7   0   0   9   5   0   0   0   0   0   0   5   0   0   7   0   0   0   0  19 99 98 97 92 91 89 80 76 75 74 73 72 67 66 64 63 59 51 50 
   2   3   0   9   0   0   0   0   0   0   0   0   0   5   0   0   0   0   0   0   0   0   0   0   0   0   0   0   0   0   0  19 101 98 97 95 94 84 75 74 71 68 66 65 62 61 60 59 58 53 49 
   4   0   0   4   0   3   0   0   0   0   0   0   0   0   0   0   0   0   0   0   0   8   0   0   0   0   0   0   9   0   0  18 100 99 98 96 92 91 89 86 76 74 73 72 69 67 66 64 51 50 
   3   0   0   0   0   0   0   1   5   0   8   0   0   0   0   0   0   0   0   0   0   0   0   2   0   0   0   0   0   0   0  10 99 94 73 71 63 61 59 54 53 41 
   4   0   0   0   0   0   0   0   0   0   0   0  10   0   7   0   0   0   0   0   0   0   0   0   0   0   0   7   0   0   0  16 100 95 94 93 86 81 76 75 71 70 69 67 66 61 49 44 
   9   5   0   7   0   0   0   0   0   0   0   0   0   9   0   0   0   0   0   0   0   0   0   0   0   0   0   6   0   8   0  12 99 98 94 92 74 73 72 71 66 54 50 44 
   6   0   0   0   0   0   0   0   0   1   0   0   8   0   0   0   0   0   0   0   0   0   0   0   0   0   0   0   8   0   0  18 99 97 96 94 93 92 81 74 73 72 70 67 65 64 63 62 60 49 
   9   0   0   0   0   0   0   0   0   9   0   0   1   7   0   3   0   0   0   0   0   0   0   0   0   0   6   0   0   0   0  14 92 89 84 76 75 74 70 69 66 65 64 59 58 51 
   7   0   0   0   0   0   7   0   0   0   0   0   0   0   0   0   0   0   0   0   0   0   0   2   0   0   0   0   8   0   2  12 99 95 94 89 80 75 73 67 65 63 59 41 
   9   0   0   8   0   0   3   0   0   0   0   0   0   0   0   0   0   0   0   0   0   0   6   0   0   0   0   0   0   0   0  14 101 95 94 93 92 81 76 74 71 67 66 62 59 44 
   1   0   0   0   0   0   0   0   0   0   0   4   0   0   0   0   0   0   0   0   0   0   0   0   0   0   4   0   0   0   0  16 100 98 97 96 95 92 88 87 83 73 71 68 67 65 60 58 
   3   0   4   0   4   0   0   0   0   0   0   0   0   0   0   0   0   4   1   0   0   0   0   0   0   0   0   0   4   0   0  14 96 94 92 85 80 73 72 71 70 65 63 60 58 56 
   2   0   0   0   0   0   0   0   0   0   0   0   0   0   0   0   0   0   0   0   0   0   0   0   0   0   0   7   0   0   0  10 96 92 83 75 73 65 64 55 54 50 
  10   0   0   0   9   0   0   7   0   0   0   0   0   0   0   0   0   0   0   9   0   0   0   0   0   0   0   0   8   5   0  13 97 92 91 90 89 84 80 72 70 67 63 59 51 
   8   0   0   0   0   0   5   0   9   0   7   0   6   0  10   7   0   0   8   0   0   0   0   0   0   0   0   0   0   6   0  17 99 96 92 89 88 87 85 83 80 77 75 74 73 70 65 64 58 
   3   0   0   0   0   0   0   5   0   0   0   0   0   0   0   0   6   0   6   9   0   0   0   0   0   0   0   0   0   0   0  15 99 96 95 92 89 88 87 85 77 73 72 70 68 65 58 
   8   0   4   0   0   0   0   6   0   0   0   0   6   0   0   0   0   0   0   2   0   6   0   7   0   0   0   0   0   6   0  17 99 97 96 92 90 89 88 87 86 84 82 81 75 72 71 68 67 
   3   7   0   0   0   0   0   0   0   0   0   0   0   0   0   0   0   0   9   0   0   0   0   0   1   0   0   0   0   0   0  18 99 98 97 96 95 94 89 88 87 86 81 79 77 76 74 72 70 69 
  10   0   0   0   0   0   8   0   0   0   0   0   8  10   0   0   0   0   0   7   0   0   0   0   0   0   0   0   0   0   0  12 98 94 92 91 87 84 76 74 67 64 58 55 
   8   0   0   0   0   0   0   0   0   7   0   0   6   0   0  10   0   7   0   0   0   0   0   0   0   0   0   0   0   0   3  12 99 98 96 94 89 86 84 80 78 67 66 50 
   2   0   0   0   0   0   0   0   5   0   0   0   0   0   0   0   5   0   7   0   0   0   0   0   0   0   0   0   3   0   0  15 101 97 95 94 93 92 89 81 80 74 73 71 70 64 63 
   3   0   0   0   0   0   0   4   0   0   0   0   0   0   0   0   0   8   0   0   0   0  10   0   0   0   7   3   0   0   5   9 97 92 89 83 80 76 73 58 54 
   3   0   0   0   0   0   0   0   0   0   0   0   0   0   0   0   0   0   0   2   0   0   0   6  10   0   0   0   0   0   0  16 98 97 95 94 92 90 87 86 85 84 82 81 80 77 72 64 
   5   0   0   0   6   0   0   0   0   0   0   0   0   0   0   0   0   0   0   8   0   0   0   5   8   0  10   0   0   0   0  15 99 94 93 92 90 89 88 87 86 83 81 77 73 70 67 
   2   6   0   4   0   6   0   0   0   0   8   0   0   0   0   0   0   0   0   0   0   0   0   8   0   0   6   8   0   0   0  11 92 90 89 84 83 80 78 71 70 67 59 
  10   0   0   0   0   0   0   6   3   0   0   0   0   0   0   0   0   0   0   0   0   0   0   0   0   0   5   0   0   0   0   9 99 93 92 86 83 79 74 73 51 
   4   6   0   0   0   0   0   0   0   0   0   0   0   0   0   0   0   0   0   0   0   0   0   0   0   0   0   0   0   0   0  11 98 97 93 92 91 87 86 81 79 72 70 
   8   0   0   0   0   0   2   0   0   0   0   0   0   0   0   0   0   0   0   0   0   0   4   5   0   0   0   0   0   0   0  11 96 94 93 85 84 82 81 80 78 77 65 
   4   0   0   0   0   0   0   0   0   0   0   0   0   0   0   0   0   5   0   0   0   0   0   0   0   5   0   0   0   0   8  10 95 94 88 86 85 81 80 73 71 66 
   4   0   0   0   0   0   0   0   0   0   0   6   0   5   0   0   0   0   0   0   0   0   0   0   0  10   7   0   0   0   0   9 97 89 84 83 82 80 77 65 64 
   8   0   0   0   0   0   0   0   0   0   0   0   7   0   0   0   0   0   0   0   0   0   0   0   0   0   0   0   0   6   0   9 98 94 93 91 83 81 80 73 71 
   7   0   4   0   0   0   0   0   0   0   0   0   0   0   0   0   0   0   0   0   0   0   0   0   0   0   0   0   0   0   0   7 95 87 86 85 81 70 66 
   4   0   0   0   0   7   0   0   0   0   0   0   0   0   0   0   0   0   0   0   0   0   1   0   0   0   0   0   0   0   0   8 92 91 89 84 82 80 77 72 
   6   0   0   0   0   0   0   0   7   6   3   0   0   0   0   0   0   0   0   0   0   0   9   0   5   0   0   0   0   0   0   7 87 84 82 80 78 77 72 
   9   0   0   0   0   0   0   0   3   0   0   0   0   0   7   0   0   4   0   0   0   0   0   0   0   0   0   0   7   7   0   7 91 90 88 87 85 79 77 
  10   0   0   6   8   0  10   0   0   0   0   0   6   0   0   0   0   0   0   0   0   0   0   6   0   0   0   0   0   0   0   6 93 90 88 87 81 70 
  10   0   6   0   0   0   0   0   0   0   0   0   0   0   0   0   0   0   0   0   0   0   0   0   0   0   0   0   0   0   0   6 95 94 87 85 81 71 
   5   0   0   0   0   0   0   8   0   0   0  10   0   0   0   0   6   0   0   0   0   0   0   0   0   0   0   0   0   0   0   6 98 94 81 80 78 71 
  10   0   0   0   0   0   0   0   0   0   0   0   0   0   0   0   0   0   0   0   0   0   5   0   6   0   8   0   0   0   0   5 92 91 81 80 64 
   8   0   0   0   0   0   0   0   0   0   0   0   0   0   0   0   0   0   0   0   0   0   0   0   0   9   4   0   0   0   0   6 95 90 87 86 85 77 
   4   0   0   0   0   0   0   0   0   7   0   0   0   0   0   0   0   0   8   0   0   0   6   0   0   6   0   0   0   0   0   6 97 89 88 80 78 77 
   7   0   7   7   0   0   0   0   0   0   0   0   0   0   0   0   0   0   0   0   4   0   0   9   0   7   0   0   0   0   5   4 88 87 84 64 
   4   0   0   0   0   9   0   0   0   0   5   0   0   0   0   0   0   3   0   0   0   3   0   0   0   0   0   0   0   0   0   4 88 82 80 64 
   2   0  10   0   0   0   0   7   0   0   7   0   0   0   0   0   0   3   0   0   0   0   0   0   0   0   0   0  10   0   0   5 93 86 81 79 78 
   4   6   6   0   0   0   0   0   0   7   0   0   0   0   0   5   0   0   0   0   0   0   0   0   0   0   0   0   0   0   0   5 96 88 86 82 79 
   4   0   0   6   0   0   3   0  10   0   0   0   0   7   0   0   0   0   0  10   5   0   2   0   0   0   0   0   5   0   0   5 91 90 89 82 78 
   3   0   0   0   0   0   4   0   0   0   0   0   0   0   9   0   0   0   0   0   0   0   0   0   0   0   0   0   0   0  10   4 92 89 88 79 
   4   4   0   0   0   7   0   0   0   0   0   0   0   0   0   0   0   7   0   0   0   0   0   0   6   0   3   0   0   0   0   4 86 83 80 79 
   4   0   0   0   0   0   6   0   0   0   0   0   0   0   0   0   0   0   0   0   0   0   0   7   0   0   0   0   0   0   0   3 82 78 77 
   1   0   0   6   0   0   0   0   0   0   0   0   0   0   0   5   0   0   0   0   0   0   9   0   0   0   7   0  10   0   0   2 79 78 
   1   7   0   0   0   0  10   0   0   0   0   0   0   0   0   0   0   0   0   0   0   0   0   0   0   0   0   0   0   0   0   2 91 90 
  10   0   0   0   0   0   0   9   0   0   0   9   0   0   0   0   0   0   0   0   0   0   0   6   0   0   0   0   0   0   0   2 83 77 
   9   0   9   3   0   0   0   6   0   0   0   0   0   0   0   0   0   0   0   0   0   0   0   0   0   0   0   0   0   0   7   2 85 79 
   5   0   0   0   0   0   0   0   0   0   0   0   5   0   4   0   0   0   6   0   0   0   9   7   0   0   5   0   0   0   0   2 91 80 
   3   0   0   7   0   0   0   0   0   0   0   0   6   0   0   0   0   0   0   0   0   0   0   9   0   6   0   0   0   0   0   2 85 80 
   1   7   0   0   3   0   0   0   0   0   0   0   0   0   0   0   0   0   4   0   0   0   0   0   0   0   0   0   0   0   0   1 82 
   6   0   0   0   0   9   0   0   0   0   0   0   0   0   0   0   0   0   0  10   0   0   0   0   6   0   0   0   0   0   9   1 77 
   7   0   0   5   0   0   0   0   0   0   7   0   0   0   0   0   0   0   0   0   0   0   0   0   0   0   0   0   0   0   0   1 83 
   7   0   0   0   0   0   0   0   0   5   0   0   0   0   0   0   0   0   0   0   0   0   0   0   0   4   0   0   0   0   0   1 84 
  10   0   0   0   0   0   0   7   0   0   0   0   0   4   0   0   0   0   5   0   0   0   0   0   0   0   0   0   0   0   5   1 78 
   8   0   0   0   0   0   0   0   0   0   0   0   0   0   0   0   0  10   0   1   9   0   0   0   0   0   0   0   2   0   0   1 78 
   3   0   0   0   0   0   0   0   0   0   0   7   0   2   0   0   0   0   0   0   0   0   0   0   0   9   5   0   0   0   0   1 78 
   7   0   0   0   8   0   9   0   4   0   0   0   0   0   0   0   0   0   0   0   0   2   0   0   0   0   0   0   0   7   0   1 102
   8   0   0   0   0   0   0   0   0   0   0   0   0   0   0   0   0   0   0   0   0   8   3   0   0   0   0   5   0   0   0   1 102
   9   0   0   0   0   0   0   0   0   0   0   5   0   0   0   0   0   0   0   0   9   0   0   0   0   2   0   0   0   7   0   1 102
  10   0   4   0   0   0   0   7   0   0   9   0   0   0   0   0   0   0   0   0   0   5   0   0   0   0   0   7   0   0   0   1 102
   5   0   0   5   0   0   0   0   0   0   0   0   0   0   0   0   0   0   0   0   0   0   0   0   0   0   0   0   0   0   0   1 102
   2   0   0   0   0   0   0   0   0   0   0   0   0   0   5   0   0   0   0   0   0   9   0   8   0   0   0   0   2   0   5   1 102
   7   0   0   0   0   4   0   0   0   0   0   0   0   0   0   0   0  10   0   8   0   0   0   0   0   0   0   0   0   0   0   1 102
   2   0   0   0   0   0   0   0   8   0   0   0   7   0   0   0   0   0   0   0   0   0   0   0   0   0   0   0   0   0   0   1 102
   4   0   0   0   0   0   0   0   0   0   0   0   0   7   0   8   0   0   0   0   0   0   0   0   0   7   0   6   0   0   0   1 102
   5   0   0   0   0   0   9   0   0   0   0   0   0   0   0   0   0   0   0   0   0   0   0   0   0   0   0   0   0   0   0   1 102
   7   0   0   0  10   0   5   0   0   0   0   0   0   0   0   0   0   0   0   3   0   8   0   0   0   0   7   0   0   0   0   1 102
   5   0   0   0   0   0   0   6  10   0   5   7   0   0   0   0   0   0   8   0   5   0   9   0   0   7   9   0   0   0   0   1 102
   7   0   0   0   0   0   0   0   0   0   0   5   0   0   0   0   0   0   0   9   0   0   0   0   0   0   0   0   0   0   0   1 102
   7   0   8   8   0   5   0   0   0   0   0   0   0   0   0   0   0   0   0   0   7   0   0   0   0   0   0   0   0   0   8   1 102
   7   0   0   0   6   0   0   5   0   0   0   0   0   0   0   0  10   0   0   0   4   0   0   0   0   0   0   0   0   0   0   1 102
   5   0   0   0   0   0   3   0   0   0   0   0   0   0   0   0   0   0   0   0   0   0   0   0   0   0   0   0   0   0   0   1 102
   7   0   0   0   0   0  10   0   0   0   6   0   0   0   0   5   0   0   0   0   0   0   0   0   8   0   0  10   0   0   9   1 102
   9   0   0   7   0   9   0   0   0   0   0   0   0   8   0   0   0   0   0   7   0   0   0   0   0   5   0   0   8   0   0   1 102
   2   0   7   0   0   0   0   0   7   0   0   0   0   0   0   0   0   0   0   0   0   0   0   0   0   0   0   0   0   0   0   1 102
   9  10   0   0   4   0   0  10   0   0   0   6   0   0   0   0   8   0   5   0   0   0   4   0   0   0   0   0   0   5   0   1 102
   3   0   0   0   0   0   0   0   0   0   0   0   0   0   0   0   0   0   0   0   7   0   0   0   0   0   0   0   0   8   0   1 102
   4   0   0   6   0   0   0   0   5   0   0   0   5   0   0   0   0   0   5   0   0   0   0   9   0   0   0   0   0   0   0   1 102
   8   0   0   0   0   0   6   0   0   0   0   0   0   0   0   8   0   0   0   7   0   0   0   0   0   0   4   0   0   0   0   1 102
   4   0   0   0   0   0   0   0   4   0   0   0   0   0   0   0   0   0   0   0   0   0   8   0   4   0   0   4   0   0   0   1 102
   6  10   0   6   0   0   0   2   0   0   0   0   0   0   0   0   0   0   0   0   9  10   0   0   0   0   0   0   0   0   6   1 102
   0   0   0   0   0   0   0   0   0   0   0   0   0   0   0   0   0   0   0   0   0   0   0   0   0   0   0   0   0   0   0   0 
